problem_generation/data/GISP/train/er_n=62_m=1085_p=0.60_SET2_setparam=100.00_alpha=0.50_915.lp
maximize
OBJ:100x0 + 100x1 + 100x2 + 100x3 + 100x4 + 100x5 + 100x6 + 100x7 + 100x8 + 100x9 + 100x10 + 100x11 + 100x12 + 100x13 + 100x14 + 100x15 + 100x16 + 100x17 + 100x18 + 100x19 + 100x20 + 100x21 + 100x22 + 100x23 + 100x24 + 100x25 + 100x26 + 100x27 + 100x28 + 100x29 + 100x30 + 100x31 + 100x32 + 100x33 + 100x34 + 100x35 + 100x36 + 100x37 + 100x38 + 100x39 + 100x40 + 100x41 + 100x42 + 100x43 + 100x44 + 100x45 + 100x46 + 100x47 + 100x48 + 100x49 + 100x50 + 100x51 + 100x52 + 100x53 + 100x54 + 100x55 + 100x56 + 100x57 + 100x58 + 100x59 + 100x60 + 100x61 - y7_17 - y47_53 - y15_30 - y26_30 - y15_39 - y26_39 - y18_35 - y29_32 - y29_41 - y48_54 - y40_50 - y6_57 - y11_23 - y10_36 - y41_51 - y33_56 - y3_15 - y25_61 - y3_24 - y32_60 - y3_33 - y14_33 - y14_51 - y36_48 - y47_48 - y47_57 - y6_34 - y48_49 - y21_41 - y29_54 - y21_59 - y25_29 - y10_40 - y2_36 - y25_38 - y2_45 - y51_59 - y3_19 - y43_55 - y3_28 - y13_60 - y24_60 - y55_56 - y17_39 - y28_39 - y5_46 - y48_53 - y40_49 - y21_45 - y40_58 - y2_22 - y10_44 - y25_42 - y51_54 - y32_50 - y32_59 - y13_55 - y24_55 - y35_55 - y16_60 - y17_34 - y17_43 - y5_59 - y6_24 - y9_57 - y6_33 - y29_35 - y29_44 - y21_40 - y2_8 - y31_53 - y10_30 - y12_58 - y24_32 - y43_45 - y51_58 - y35_41 - y32_54 - y16_37 - y43_54 - y24_50 - y13_59 - y16_55 - y36_42 - y36_51 - y17_47 - y6_10 - y6_19 - y9_61 - y6_37 - y10_16 - y39_52 - y2_21 - y31_57 - y54_59 - y13_27 - y24_27 - y13_36 - y32_49 - y43_49 - y13_45 - y35_54 - y16_50 - y9_11 - y16_59 - y46_60 - y28_33 - y5_40 - y17_42 - y5_49 - y6_23 - y50_57 - y42_53 - y8_60 - y20_34 - y39_47 - y2_7 - y20_52 - y31_52 - y12_48 - y31_61 - y1_29 - y13_31 - y32_44 - y16_27 - y43_44 - y43_53 - y16_36 - y13_49 - y35_49 - y5_8 - y35_58 - y5_17 - y17_19 - y49_51 - y5_26 - y17_28 - y38_60 - y19_46 - y30_46 - y42_48 - y0_51 - y11_51 - y0_60 - y20_38 - y20_56 - y31_56 - y13_26 - y24_26 - y34_58 - y1_42 - y16_49 - y38_46 - y57_59 - y38_55 - y49_55 - y9_28 - y6_13 - y8_32 - y19_41 - y27_54 - y0_37 - y50_56 - y30_50 - y42_52 - y0_46 - y20_42 - y31_42 - y12_38 - y1_19 - y1_28 - y13_30 - y22_60 - y16_35 - y1_46 - y5_7 - y5_16 - y15_57 - y26_57 - y8_36 - y11_32 - y30_45 - y27_58 - y0_41 - y8_54 - y30_54 - y42_56 - y20_28 - y0_59 - y11_59 - y41_60 - y20_37 - y23_33 - y34_39 - y34_48 - y24_25 - y53_61 - y16_21 - y45_57 - y1_32 - y16_30 - y3_60 - y15_43 - y26_52 - y38_54 - y49_54 - y7_48 - y7_57 - y27_35 - y11_18 - y0_27 - y11_27 - y12_19 - y31_32 - y12_37 - y4_33 - y53_56 - y37_39 - y22_50 - y14_46 - y34_61 - y15_29 - y5_6 - y38_40 - y18_34 - y26_47 - y15_56 - y7_52 - y0_13 - y18_61 - y8_26 - y8_35 - y19_35 - y0_31 - y11_31 - y11_49 - y12_14 - y25_60 - y45_47 - y3_41 - y22_54 - y34_56 - y14_59 - y37_61 - y15_42 - y18_38 - y7_47 - y0_8 - y18_56 - y6_60 - y0_35 - y2_53 - y14_36 - y45_51 - y14_45 - y7_24 - y47_60 - y7_33 - y18_42 - y0_3 - y29_39 - y19_25 - y0_21 - y40_57 - y21_53 - y4_9 - y10_43 - y41_58 - y2_39 - y52_58 - y34_37 - y3_31 - y3_40 - y37_42 - y47_55 - y15_32 - y28_51 - y0_7 - y29_43 - y29_52 - y40_52 - y10_38 - y25_36 - y25_45 - y25_54 - y3_26 - y24_58 - y3_44 - y36_50 - y28_46 - y47_59 - y9_42 - y5_53 - y17_55 - y28_55 - y6_45 - y29_56 - y21_52 - y21_61 - y54_58 - y10_42 - y33_44 - y25_40 - y10_51 - y51_52 - y3_12 - y2_56 - y14_21 - y35_53 - y16_58 - y17_41 - y9_37 - y9_46 - y17_59 - y21_29 - y6_40 - y29_51 - y40_51 - y10_28 - y20_60 - y32_34 - y13_39 - y35_39 - y3_16 - y14_16 - y43_52 - y24_48 - y32_61 - y24_57 - y16_53 - y17_18 - y17_27 - y9_23 - y5_43 - y6_8 - y5_52 - y28_54 - y6_35 - y29_37 - y6_44 - y21_42 - y10_23 - y2_19 - y31_55 - y23_51 - y2_37 - y4_56 - y32_47 - y43_47 - y1_41 - y1_50 - y35_52 - y35_61 - y17_22 - y9_18 - y17_31 - y9_36 - y28_49 - y6_12 - y6_21 - y9_54 - y21_28 - y2_5 - y10_18 - y12_46 - y23_46 - y23_55 - y1_27 - y13_29 - y32_42 - y1_36 - y43_51 - y16_61 - y49_58 - y17_35 - y28_35 - y27_48 - y6_25 - y21_23 - y30_53 - y0_58 - y11_58 - y39_40 - y20_36 - y31_36 - y12_32 - y39_58 - y12_41 - y20_54 - y54_56 - y23_50 - y1_22 - y32_46 - y1_40 - y1_49 - y35_51 - y16_47 - y1_58 - y9_17 - y5_28 - y9_26 - y9_35 - y6_11 - y19_39 - y50_54 - y8_48 - y42_50 - y23_27 - y4_32 - y4_41 - y12_54 - y34_60 - y45_60 - y24_37 - y35_37 - y1_44 - y16_42 - y5_23 - y38_57 - y49_57 - y5_32 - y27_29 - y19_34 - y30_34 - y0_30 - y11_39 - y0_48 - y20_35 - y31_35 - y4_27 - y1_3 - y23_49 - y13_14 - y4_45 - y13_23 - y1_30 - y16_28 - y3_58 - y46_56 - y15_50 - y18_46 - y15_59 - y26_59 - y49_61 - y8_29 - y19_29 - y0_25 - y27_51 - y8_47 - y19_47 - y42_49 - y19_56 - y30_56 - y0_52 - y12_17 - y41_53 - y0_61 - y4_22 - y23_35 - y1_7 - y45_50 - y1_25 - y45_59 - y14_53 - y18_32 - y15_45 - y38_47 - y7_41 - y7_50 - y0_11 - y8_24 - y19_24 - y8_33 - y11_29 - y0_38 - y11_38 - y41_48 - y20_25 - y60_61 - y33_53 - y25_49 - y4_26 - y1_2 - y34_36 - y34_45 - y1_20 - y14_39 - y37_41 - y22_52 - y53_58 - y3_48 - y37_50 - y3_57 - y14_57 - y37_59 - y26_31 - y26_40 - y38_42 - y15_49 - y8_10 - y11_15 - y8_28 - y19_28 - y8_37 - y30_37 - y0_42 - y11_42 - y4_21 - y33_57 - y22_38 - y22_47 - y34_49 - y22_56 - y45_58 - y7_13 - y3_61 - y7_22 - y15_35 - y18_31 - y7_40 - y0_1 - y48_50 - y0_10 - y8_23 - y0_19 - y11_19 - y21_51 - y21_60 - y41_47 - y25_30 - y4_7 - y10_41 - y33_43 - y10_50 - y44_52 - y3_29 - y14_38 - y37_40 - y37_49
 Subject to
C1: x0+x1-y0_1 <=1 
C2: x0+x3-y0_3 <=1 
C3: x0+x6 <=1 
C4: x0+x7-y0_7 <=1 
C5: x0+x8-y0_8 <=1 
C6: x0+x10-y0_10 <=1 
C7: x0+x11-y0_11 <=1 
C8: x0+x13-y0_13 <=1 
C9: x0+x19-y0_19 <=1 
C10: x0+x21-y0_21 <=1 
C11: x0+x24 <=1 
C12: x0+x25-y0_25 <=1 
C13: x0+x27-y0_27 <=1 
C14: x0+x30-y0_30 <=1 
C15: x0+x31-y0_31 <=1 
C16: x0+x35-y0_35 <=1 
C17: x0+x36 <=1 
C18: x0+x37-y0_37 <=1 
C19: x0+x38-y0_38 <=1 
C20: x0+x39 <=1 
C21: x0+x41-y0_41 <=1 
C22: x0+x42-y0_42 <=1 
C23: x0+x44 <=1 
C24: x0+x46-y0_46 <=1 
C25: x0+x48-y0_48 <=1 
C26: x0+x50 <=1 
C27: x0+x51-y0_51 <=1 
C28: x0+x52-y0_52 <=1 
C29: x0+x58-y0_58 <=1 
C30: x0+x59-y0_59 <=1 
C31: x0+x60-y0_60 <=1 
C32: x0+x61-y0_61 <=1 
C33: x1+x2-y1_2 <=1 
C34: x1+x3-y1_3 <=1 
C35: x1+x4 <=1 
C36: x1+x6 <=1 
C37: x1+x7-y1_7 <=1 
C38: x1+x10 <=1 
C39: x1+x13 <=1 
C40: x1+x18 <=1 
C41: x1+x19-y1_19 <=1 
C42: x1+x20-y1_20 <=1 
C43: x1+x22-y1_22 <=1 
C44: x1+x23 <=1 
C45: x1+x24 <=1 
C46: x1+x25-y1_25 <=1 
C47: x1+x27-y1_27 <=1 
C48: x1+x28-y1_28 <=1 
C49: x1+x29-y1_29 <=1 
C50: x1+x30-y1_30 <=1 
C51: x1+x32-y1_32 <=1 
C52: x1+x36-y1_36 <=1 
C53: x1+x38 <=1 
C54: x1+x39 <=1 
C55: x1+x40-y1_40 <=1 
C56: x1+x41-y1_41 <=1 
C57: x1+x42-y1_42 <=1 
C58: x1+x43 <=1 
C59: x1+x44-y1_44 <=1 
C60: x1+x46-y1_46 <=1 
C61: x1+x47 <=1 
C62: x1+x49-y1_49 <=1 
C63: x1+x50-y1_50 <=1 
C64: x1+x56 <=1 
C65: x1+x58-y1_58 <=1 
C66: x1+x59 <=1 
C67: x2+x5-y2_5 <=1 
C68: x2+x7-y2_7 <=1 
C69: x2+x8-y2_8 <=1 
C70: x2+x11 <=1 
C71: x2+x15 <=1 
C72: x2+x16 <=1 
C73: x2+x19-y2_19 <=1 
C74: x2+x20 <=1 
C75: x2+x21-y2_21 <=1 
C76: x2+x22-y2_22 <=1 
C77: x2+x23 <=1 
C78: x2+x29 <=1 
C79: x2+x33 <=1 
C80: x2+x34 <=1 
C81: x2+x36-y2_36 <=1 
C82: x2+x37-y2_37 <=1 
C83: x2+x39-y2_39 <=1 
C84: x2+x40 <=1 
C85: x2+x41 <=1 
C86: x2+x44 <=1 
C87: x2+x45-y2_45 <=1 
C88: x2+x48 <=1 
C89: x2+x49 <=1 
C90: x2+x51 <=1 
C91: x2+x53-y2_53 <=1 
C92: x2+x56-y2_56 <=1 
C93: x2+x58 <=1 
C94: x2+x60 <=1 
C95: x3+x5 <=1 
C96: x3+x6 <=1 
C97: x3+x9 <=1 
C98: x3+x10 <=1 
C99: x3+x12-y3_12 <=1 
C100: x3+x15-y3_15 <=1 
C101: x3+x16-y3_16 <=1 
C102: x3+x17 <=1 
C103: x3+x19-y3_19 <=1 
C104: x3+x24-y3_24 <=1 
C105: x3+x25 <=1 
C106: x3+x26-y3_26 <=1 
C107: x3+x28-y3_28 <=1 
C108: x3+x29-y3_29 <=1 
C109: x3+x30 <=1 
C110: x3+x31-y3_31 <=1 
C111: x3+x33-y3_33 <=1 
C112: x3+x34 <=1 
C113: x3+x37 <=1 
C114: x3+x40-y3_40 <=1 
C115: x3+x41-y3_41 <=1 
C116: x3+x43 <=1 
C117: x3+x44-y3_44 <=1 
C118: x3+x45 <=1 
C119: x3+x46 <=1 
C120: x3+x47 <=1 
C121: x3+x48-y3_48 <=1 
C122: x3+x53 <=1 
C123: x3+x57-y3_57 <=1 
C124: x3+x58-y3_58 <=1 
C125: x3+x60-y3_60 <=1 
C126: x3+x61-y3_61 <=1 
C127: x4+x7-y4_7 <=1 
C128: x4+x9-y4_9 <=1 
C129: x4+x12 <=1 
C130: x4+x15 <=1 
C131: x4+x16 <=1 
C132: x4+x17 <=1 
C133: x4+x18 <=1 
C134: x4+x20 <=1 
C135: x4+x21-y4_21 <=1 
C136: x4+x22-y4_22 <=1 
C137: x4+x24 <=1 
C138: x4+x25 <=1 
C139: x4+x26-y4_26 <=1 
C140: x4+x27-y4_27 <=1 
C141: x4+x28 <=1 
C142: x4+x32-y4_32 <=1 
C143: x4+x33-y4_33 <=1 
C144: x4+x34 <=1 
C145: x4+x37 <=1 
C146: x4+x39 <=1 
C147: x4+x41-y4_41 <=1 
C148: x4+x42 <=1 
C149: x4+x43 <=1 
C150: x4+x45-y4_45 <=1 
C151: x4+x47 <=1 
C152: x4+x48 <=1 
C153: x4+x52 <=1 
C154: x4+x53 <=1 
C155: x4+x54 <=1 
C156: x4+x55 <=1 
C157: x4+x56-y4_56 <=1 
C158: x4+x57 <=1 
C159: x4+x58 <=1 
C160: x4+x59 <=1 
C161: x5+x6-y5_6 <=1 
C162: x5+x7-y5_7 <=1 
C163: x5+x8-y5_8 <=1 
C164: x5+x10 <=1 
C165: x5+x11 <=1 
C166: x5+x12 <=1 
C167: x5+x15 <=1 
C168: x5+x16-y5_16 <=1 
C169: x5+x17-y5_17 <=1 
C170: x5+x19 <=1 
C171: x5+x22 <=1 
C172: x5+x23-y5_23 <=1 
C173: x5+x24 <=1 
C174: x5+x26-y5_26 <=1 
C175: x5+x28-y5_28 <=1 
C176: x5+x30 <=1 
C177: x5+x31 <=1 
C178: x5+x32-y5_32 <=1 
C179: x5+x33 <=1 
C180: x5+x34 <=1 
C181: x5+x36 <=1 
C182: x5+x37 <=1 
C183: x5+x38 <=1 
C184: x5+x40-y5_40 <=1 
C185: x5+x41 <=1 
C186: x5+x43-y5_43 <=1 
C187: x5+x44 <=1 
C188: x5+x46-y5_46 <=1 
C189: x5+x49-y5_49 <=1 
C190: x5+x52-y5_52 <=1 
C191: x5+x53-y5_53 <=1 
C192: x5+x56 <=1 
C193: x5+x57 <=1 
C194: x5+x58 <=1 
C195: x5+x59-y5_59 <=1 
C196: x5+x60 <=1 
C197: x5+x61 <=1 
C198: x6+x8-y6_8 <=1 
C199: x6+x9 <=1 
C200: x6+x10-y6_10 <=1 
C201: x6+x11-y6_11 <=1 
C202: x6+x12-y6_12 <=1 
C203: x6+x13-y6_13 <=1 
C204: x6+x17 <=1 
C205: x6+x19-y6_19 <=1 
C206: x6+x21-y6_21 <=1 
C207: x6+x23-y6_23 <=1 
C208: x6+x24-y6_24 <=1 
C209: x6+x25-y6_25 <=1 
C210: x6+x28 <=1 
C211: x6+x30 <=1 
C212: x6+x31 <=1 
C213: x6+x33-y6_33 <=1 
C214: x6+x34-y6_34 <=1 
C215: x6+x35-y6_35 <=1 
C216: x6+x37-y6_37 <=1 
C217: x6+x39 <=1 
C218: x6+x40-y6_40 <=1 
C219: x6+x41 <=1 
C220: x6+x42 <=1 
C221: x6+x43 <=1 
C222: x6+x44-y6_44 <=1 
C223: x6+x45-y6_45 <=1 
C224: x6+x47 <=1 
C225: x6+x49 <=1 
C226: x6+x50 <=1 
C227: x6+x54 <=1 
C228: x6+x55 <=1 
C229: x6+x56 <=1 
C230: x6+x57-y6_57 <=1 
C231: x6+x58 <=1 
C232: x6+x60-y6_60 <=1 
C233: x6+x61 <=1 
C234: x7+x8 <=1 
C235: x7+x11 <=1 
C236: x7+x13-y7_13 <=1 
C237: x7+x16 <=1 
C238: x7+x17-y7_17 <=1 
C239: x7+x18 <=1 
C240: x7+x20 <=1 
C241: x7+x22-y7_22 <=1 
C242: x7+x24-y7_24 <=1 
C243: x7+x27 <=1 
C244: x7+x30 <=1 
C245: x7+x33-y7_33 <=1 
C246: x7+x34 <=1 
C247: x7+x35 <=1 
C248: x7+x37 <=1 
C249: x7+x40-y7_40 <=1 
C250: x7+x41-y7_41 <=1 
C251: x7+x42 <=1 
C252: x7+x47-y7_47 <=1 
C253: x7+x48-y7_48 <=1 
C254: x7+x50-y7_50 <=1 
C255: x7+x52-y7_52 <=1 
C256: x7+x57-y7_57 <=1 
C257: x7+x60 <=1 
C258: x8+x9 <=1 
C259: x8+x10-y8_10 <=1 
C260: x8+x17 <=1 
C261: x8+x20 <=1 
C262: x8+x21 <=1 
C263: x8+x22 <=1 
C264: x8+x23-y8_23 <=1 
C265: x8+x24-y8_24 <=1 
C266: x8+x25 <=1 
C267: x8+x26-y8_26 <=1 
C268: x8+x27 <=1 
C269: x8+x28-y8_28 <=1 
C270: x8+x29-y8_29 <=1 
C271: x8+x30 <=1 
C272: x8+x31 <=1 
C273: x8+x32-y8_32 <=1 
C274: x8+x33-y8_33 <=1 
C275: x8+x34 <=1 
C276: x8+x35-y8_35 <=1 
C277: x8+x36-y8_36 <=1 
C278: x8+x37-y8_37 <=1 
C279: x8+x41 <=1 
C280: x8+x47-y8_47 <=1 
C281: x8+x48-y8_48 <=1 
C282: x8+x52 <=1 
C283: x8+x53 <=1 
C284: x8+x54-y8_54 <=1 
C285: x8+x56 <=1 
C286: x8+x58 <=1 
C287: x8+x60-y8_60 <=1 
C288: x9+x10 <=1 
C289: x9+x11-y9_11 <=1 
C290: x9+x12 <=1 
C291: x9+x13 <=1 
C292: x9+x14 <=1 
C293: x9+x17-y9_17 <=1 
C294: x9+x18-y9_18 <=1 
C295: x9+x21 <=1 
C296: x9+x23-y9_23 <=1 
C297: x9+x26-y9_26 <=1 
C298: x9+x28-y9_28 <=1 
C299: x9+x30 <=1 
C300: x9+x31 <=1 
C301: x9+x33 <=1 
C302: x9+x35-y9_35 <=1 
C303: x9+x36-y9_36 <=1 
C304: x9+x37-y9_37 <=1 
C305: x9+x38 <=1 
C306: x9+x42-y9_42 <=1 
C307: x9+x43 <=1 
C308: x9+x44 <=1 
C309: x9+x46-y9_46 <=1 
C310: x9+x49 <=1 
C311: x9+x54-y9_54 <=1 
C312: x9+x56 <=1 
C313: x9+x57-y9_57 <=1 
C314: x9+x58 <=1 
C315: x9+x59 <=1 
C316: x9+x61-y9_61 <=1 
C317: x10+x11 <=1 
C318: x10+x12 <=1 
C319: x10+x13 <=1 
C320: x10+x15 <=1 
C321: x10+x16-y10_16 <=1 
C322: x10+x17 <=1 
C323: x10+x18-y10_18 <=1 
C324: x10+x19 <=1 
C325: x10+x22 <=1 
C326: x10+x23-y10_23 <=1 
C327: x10+x24 <=1 
C328: x10+x25 <=1 
C329: x10+x27 <=1 
C330: x10+x28-y10_28 <=1 
C331: x10+x29 <=1 
C332: x10+x30-y10_30 <=1 
C333: x10+x31 <=1 
C334: x10+x33 <=1 
C335: x10+x35 <=1 
C336: x10+x36-y10_36 <=1 
C337: x10+x38-y10_38 <=1 
C338: x10+x39 <=1 
C339: x10+x40-y10_40 <=1 
C340: x10+x41-y10_41 <=1 
C341: x10+x42-y10_42 <=1 
C342: x10+x43-y10_43 <=1 
C343: x10+x44-y10_44 <=1 
C344: x10+x45 <=1 
C345: x10+x50-y10_50 <=1 
C346: x10+x51-y10_51 <=1 
C347: x10+x52 <=1 
C348: x10+x56 <=1 
C349: x10+x60 <=1 
C350: x11+x12 <=1 
C351: x11+x13 <=1 
C352: x11+x14 <=1 
C353: x11+x15-y11_15 <=1 
C354: x11+x18-y11_18 <=1 
C355: x11+x19-y11_19 <=1 
C356: x11+x21 <=1 
C357: x11+x22 <=1 
C358: x11+x23-y11_23 <=1 
C359: x11+x24 <=1 
C360: x11+x26 <=1 
C361: x11+x27-y11_27 <=1 
C362: x11+x28 <=1 
C363: x11+x29-y11_29 <=1 
C364: x11+x30 <=1 
C365: x11+x31-y11_31 <=1 
C366: x11+x32-y11_32 <=1 
C367: x11+x34 <=1 
C368: x11+x36 <=1 
C369: x11+x38-y11_38 <=1 
C370: x11+x39-y11_39 <=1 
C371: x11+x40 <=1 
C372: x11+x42-y11_42 <=1 
C373: x11+x43 <=1 
C374: x11+x45 <=1 
C375: x11+x49-y11_49 <=1 
C376: x11+x50 <=1 
C377: x11+x51-y11_51 <=1 
C378: x11+x52 <=1 
C379: x11+x57 <=1 
C380: x11+x58-y11_58 <=1 
C381: x11+x59-y11_59 <=1 
C382: x11+x60 <=1 
C383: x12+x14-y12_14 <=1 
C384: x12+x17-y12_17 <=1 
C385: x12+x19-y12_19 <=1 
C386: x12+x20 <=1 
C387: x12+x23 <=1 
C388: x12+x25 <=1 
C389: x12+x26 <=1 
C390: x12+x28 <=1 
C391: x12+x31 <=1 
C392: x12+x32-y12_32 <=1 
C393: x12+x33 <=1 
C394: x12+x34 <=1 
C395: x12+x35 <=1 
C396: x12+x36 <=1 
C397: x12+x37-y12_37 <=1 
C398: x12+x38-y12_38 <=1 
C399: x12+x40 <=1 
C400: x12+x41-y12_41 <=1 
C401: x12+x43 <=1 
C402: x12+x46-y12_46 <=1 
C403: x12+x48-y12_48 <=1 
C404: x12+x51 <=1 
C405: x12+x54-y12_54 <=1 
C406: x12+x57 <=1 
C407: x12+x58-y12_58 <=1 
C408: x12+x59 <=1 
C409: x13+x14-y13_14 <=1 
C410: x13+x16 <=1 
C411: x13+x18 <=1 
C412: x13+x19 <=1 
C413: x13+x20 <=1 
C414: x13+x23-y13_23 <=1 
C415: x13+x24 <=1 
C416: x13+x26-y13_26 <=1 
C417: x13+x27-y13_27 <=1 
C418: x13+x29-y13_29 <=1 
C419: x13+x30-y13_30 <=1 
C420: x13+x31-y13_31 <=1 
C421: x13+x32 <=1 
C422: x13+x34 <=1 
C423: x13+x36-y13_36 <=1 
C424: x13+x37 <=1 
C425: x13+x39-y13_39 <=1 
C426: x13+x40 <=1 
C427: x13+x45-y13_45 <=1 
C428: x13+x48 <=1 
C429: x13+x49-y13_49 <=1 
C430: x13+x51 <=1 
C431: x13+x55-y13_55 <=1 
C432: x13+x58 <=1 
C433: x13+x59-y13_59 <=1 
C434: x13+x60-y13_60 <=1 
C435: x14+x16-y14_16 <=1 
C436: x14+x17 <=1 
C437: x14+x18 <=1 
C438: x14+x21-y14_21 <=1 
C439: x14+x22 <=1 
C440: x14+x26 <=1 
C441: x14+x29 <=1 
C442: x14+x30 <=1 
C443: x14+x31 <=1 
C444: x14+x33-y14_33 <=1 
C445: x14+x36-y14_36 <=1 
C446: x14+x38-y14_38 <=1 
C447: x14+x39-y14_39 <=1 
C448: x14+x40 <=1 
C449: x14+x42 <=1 
C450: x14+x43 <=1 
C451: x14+x44 <=1 
C452: x14+x45-y14_45 <=1 
C453: x14+x46-y14_46 <=1 
C454: x14+x49 <=1 
C455: x14+x51-y14_51 <=1 
C456: x14+x52 <=1 
C457: x14+x53-y14_53 <=1 
C458: x14+x54 <=1 
C459: x14+x57-y14_57 <=1 
C460: x14+x59-y14_59 <=1 
C461: x15+x16 <=1 
C462: x15+x17 <=1 
C463: x15+x19 <=1 
C464: x15+x23 <=1 
C465: x15+x24 <=1 
C466: x15+x25 <=1 
C467: x15+x26 <=1 
C468: x15+x28 <=1 
C469: x15+x29-y15_29 <=1 
C470: x15+x30-y15_30 <=1 
C471: x15+x32-y15_32 <=1 
C472: x15+x34 <=1 
C473: x15+x35-y15_35 <=1 
C474: x15+x36 <=1 
C475: x15+x38 <=1 
C476: x15+x39-y15_39 <=1 
C477: x15+x40 <=1 
C478: x15+x42-y15_42 <=1 
C479: x15+x43-y15_43 <=1 
C480: x15+x44 <=1 
C481: x15+x45-y15_45 <=1 
C482: x15+x47 <=1 
C483: x15+x49-y15_49 <=1 
C484: x15+x50-y15_50 <=1 
C485: x15+x55 <=1 
C486: x15+x56-y15_56 <=1 
C487: x15+x57-y15_57 <=1 
C488: x15+x58 <=1 
C489: x15+x59-y15_59 <=1 
C490: x16+x17 <=1 
C491: x16+x21-y16_21 <=1 
C492: x16+x22 <=1 
C493: x16+x23 <=1 
C494: x16+x27-y16_27 <=1 
C495: x16+x28-y16_28 <=1 
C496: x16+x30-y16_30 <=1 
C497: x16+x31 <=1 
C498: x16+x33 <=1 
C499: x16+x34 <=1 
C500: x16+x35-y16_35 <=1 
C501: x16+x36-y16_36 <=1 
C502: x16+x37-y16_37 <=1 
C503: x16+x39 <=1 
C504: x16+x40 <=1 
C505: x16+x41 <=1 
C506: x16+x42-y16_42 <=1 
C507: x16+x44 <=1 
C508: x16+x47-y16_47 <=1 
C509: x16+x49-y16_49 <=1 
C510: x16+x50-y16_50 <=1 
C511: x16+x53-y16_53 <=1 
C512: x16+x55-y16_55 <=1 
C513: x16+x56 <=1 
C514: x16+x58-y16_58 <=1 
C515: x16+x59-y16_59 <=1 
C516: x16+x60-y16_60 <=1 
C517: x16+x61-y16_61 <=1 
C518: x17+x18-y17_18 <=1 
C519: x17+x19-y17_19 <=1 
C520: x17+x21 <=1 
C521: x17+x22-y17_22 <=1 
C522: x17+x27-y17_27 <=1 
C523: x17+x28-y17_28 <=1 
C524: x17+x31-y17_31 <=1 
C525: x17+x34-y17_34 <=1 
C526: x17+x35-y17_35 <=1 
C527: x17+x36 <=1 
C528: x17+x37 <=1 
C529: x17+x39-y17_39 <=1 
C530: x17+x41-y17_41 <=1 
C531: x17+x42-y17_42 <=1 
C532: x17+x43-y17_43 <=1 
C533: x17+x47-y17_47 <=1 
C534: x17+x49 <=1 
C535: x17+x50 <=1 
C536: x17+x51 <=1 
C537: x17+x52 <=1 
C538: x17+x54 <=1 
C539: x17+x55-y17_55 <=1 
C540: x17+x58 <=1 
C541: x17+x59-y17_59 <=1 
C542: x17+x61 <=1 
C543: x18+x19 <=1 
C544: x18+x21 <=1 
C545: x18+x24 <=1 
C546: x18+x26 <=1 
C547: x18+x27 <=1 
C548: x18+x30 <=1 
C549: x18+x31-y18_31 <=1 
C550: x18+x32-y18_32 <=1 
C551: x18+x34-y18_34 <=1 
C552: x18+x35-y18_35 <=1 
C553: x18+x36 <=1 
C554: x18+x38-y18_38 <=1 
C555: x18+x40 <=1 
C556: x18+x42-y18_42 <=1 
C557: x18+x43 <=1 
C558: x18+x45 <=1 
C559: x18+x46-y18_46 <=1 
C560: x18+x47 <=1 
C561: x18+x49 <=1 
C562: x18+x50 <=1 
C563: x18+x51 <=1 
C564: x18+x52 <=1 
C565: x18+x56-y18_56 <=1 
C566: x18+x58 <=1 
C567: x18+x59 <=1 
C568: x18+x60 <=1 
C569: x18+x61-y18_61 <=1 
C570: x19+x20 <=1 
C571: x19+x22 <=1 
C572: x19+x23 <=1 
C573: x19+x24-y19_24 <=1 
C574: x19+x25-y19_25 <=1 
C575: x19+x28-y19_28 <=1 
C576: x19+x29-y19_29 <=1 
C577: x19+x33 <=1 
C578: x19+x34-y19_34 <=1 
C579: x19+x35-y19_35 <=1 
C580: x19+x37 <=1 
C581: x19+x38 <=1 
C582: x19+x39-y19_39 <=1 
C583: x19+x40 <=1 
C584: x19+x41-y19_41 <=1 
C585: x19+x46-y19_46 <=1 
C586: x19+x47-y19_47 <=1 
C587: x19+x52 <=1 
C588: x19+x55 <=1 
C589: x19+x56-y19_56 <=1 
C590: x19+x58 <=1 
C591: x19+x60 <=1 
C592: x19+x61 <=1 
C593: x20+x21 <=1 
C594: x20+x22 <=1 
C595: x20+x23 <=1 
C596: x20+x25-y20_25 <=1 
C597: x20+x26 <=1 
C598: x20+x28-y20_28 <=1 
C599: x20+x30 <=1 
C600: x20+x32 <=1 
C601: x20+x33 <=1 
C602: x20+x34-y20_34 <=1 
C603: x20+x35-y20_35 <=1 
C604: x20+x36-y20_36 <=1 
C605: x20+x37-y20_37 <=1 
C606: x20+x38-y20_38 <=1 
C607: x20+x42-y20_42 <=1 
C608: x20+x45 <=1 
C609: x20+x47 <=1 
C610: x20+x52-y20_52 <=1 
C611: x20+x54-y20_54 <=1 
C612: x20+x55 <=1 
C613: x20+x56-y20_56 <=1 
C614: x20+x58 <=1 
C615: x20+x59 <=1 
C616: x20+x60-y20_60 <=1 
C617: x20+x61 <=1 
C618: x21+x23-y21_23 <=1 
C619: x21+x24 <=1 
C620: x21+x25 <=1 
C621: x21+x26 <=1 
C622: x21+x28-y21_28 <=1 
C623: x21+x29-y21_29 <=1 
C624: x21+x31 <=1 
C625: x21+x32 <=1 
C626: x21+x34 <=1 
C627: x21+x36 <=1 
C628: x21+x38 <=1 
C629: x21+x39 <=1 
C630: x21+x40-y21_40 <=1 
C631: x21+x41-y21_41 <=1 
C632: x21+x42-y21_42 <=1 
C633: x21+x45-y21_45 <=1 
C634: x21+x47 <=1 
C635: x21+x48 <=1 
C636: x21+x49 <=1 
C637: x21+x51-y21_51 <=1 
C638: x21+x52-y21_52 <=1 
C639: x21+x53-y21_53 <=1 
C640: x21+x55 <=1 
C641: x21+x58 <=1 
C642: x21+x59-y21_59 <=1 
C643: x21+x60-y21_60 <=1 
C644: x21+x61-y21_61 <=1 
C645: x22+x24 <=1 
C646: x22+x25 <=1 
C647: x22+x30 <=1 
C648: x22+x31 <=1 
C649: x22+x33 <=1 
C650: x22+x34 <=1 
C651: x22+x37 <=1 
C652: x22+x38-y22_38 <=1 
C653: x22+x40 <=1 
C654: x22+x46 <=1 
C655: x22+x47-y22_47 <=1 
C656: x22+x50-y22_50 <=1 
C657: x22+x51 <=1 
C658: x22+x52-y22_52 <=1 
C659: x22+x54-y22_54 <=1 
C660: x22+x56-y22_56 <=1 
C661: x22+x57 <=1 
C662: x22+x60-y22_60 <=1 
C663: x23+x24 <=1 
C664: x23+x26 <=1 
C665: x23+x27-y23_27 <=1 
C666: x23+x30 <=1 
C667: x23+x31 <=1 
C668: x23+x33-y23_33 <=1 
C669: x23+x35-y23_35 <=1 
C670: x23+x36 <=1 
C671: x23+x38 <=1 
C672: x23+x39 <=1 
C673: x23+x40 <=1 
C674: x23+x41 <=1 
C675: x23+x43 <=1 
C676: x23+x46-y23_46 <=1 
C677: x23+x49-y23_49 <=1 
C678: x23+x50-y23_50 <=1 
C679: x23+x51-y23_51 <=1 
C680: x23+x53 <=1 
C681: x23+x55-y23_55 <=1 
C682: x23+x59 <=1 
C683: x24+x25-y24_25 <=1 
C684: x24+x26-y24_26 <=1 
C685: x24+x27-y24_27 <=1 
C686: x24+x31 <=1 
C687: x24+x32-y24_32 <=1 
C688: x24+x33 <=1 
C689: x24+x36 <=1 
C690: x24+x37-y24_37 <=1 
C691: x24+x38 <=1 
C692: x24+x40 <=1 
C693: x24+x41 <=1 
C694: x24+x43 <=1 
C695: x24+x45 <=1 
C696: x24+x46 <=1 
C697: x24+x48-y24_48 <=1 
C698: x24+x49 <=1 
C699: x24+x50-y24_50 <=1 
C700: x24+x55-y24_55 <=1 
C701: x24+x57-y24_57 <=1 
C702: x24+x58-y24_58 <=1 
C703: x24+x60-y24_60 <=1 
C704: x25+x28 <=1 
C705: x25+x29-y25_29 <=1 
C706: x25+x30-y25_30 <=1 
C707: x25+x32 <=1 
C708: x25+x33 <=1 
C709: x25+x34 <=1 
C710: x25+x36-y25_36 <=1 
C711: x25+x38-y25_38 <=1 
C712: x25+x40-y25_40 <=1 
C713: x25+x41 <=1 
C714: x25+x42-y25_42 <=1 
C715: x25+x43 <=1 
C716: x25+x44 <=1 
C717: x25+x45-y25_45 <=1 
C718: x25+x46 <=1 
C719: x25+x48 <=1 
C720: x25+x49-y25_49 <=1 
C721: x25+x50 <=1 
C722: x25+x52 <=1 
C723: x25+x54-y25_54 <=1 
C724: x25+x56 <=1 
C725: x25+x58 <=1 
C726: x25+x59 <=1 
C727: x25+x60-y25_60 <=1 
C728: x25+x61-y25_61 <=1 
C729: x26+x30-y26_30 <=1 
C730: x26+x31-y26_31 <=1 
C731: x26+x32 <=1 
C732: x26+x35 <=1 
C733: x26+x36 <=1 
C734: x26+x37 <=1 
C735: x26+x39-y26_39 <=1 
C736: x26+x40-y26_40 <=1 
C737: x26+x46 <=1 
C738: x26+x47-y26_47 <=1 
C739: x26+x48 <=1 
C740: x26+x52-y26_52 <=1 
C741: x26+x56 <=1 
C742: x26+x57-y26_57 <=1 
C743: x26+x59-y26_59 <=1 
C744: x26+x60 <=1 
C745: x27+x29-y27_29 <=1 
C746: x27+x30 <=1 
C747: x27+x31 <=1 
C748: x27+x35-y27_35 <=1 
C749: x27+x36 <=1 
C750: x27+x38 <=1 
C751: x27+x43 <=1 
C752: x27+x46 <=1 
C753: x27+x47 <=1 
C754: x27+x48-y27_48 <=1 
C755: x27+x50 <=1 
C756: x27+x51-y27_51 <=1 
C757: x27+x54-y27_54 <=1 
C758: x27+x58-y27_58 <=1 
C759: x27+x60 <=1 
C760: x27+x61 <=1 
C761: x28+x30 <=1 
C762: x28+x31 <=1 
C763: x28+x33-y28_33 <=1 
C764: x28+x35-y28_35 <=1 
C765: x28+x36 <=1 
C766: x28+x39-y28_39 <=1 
C767: x28+x40 <=1 
C768: x28+x42 <=1 
C769: x28+x43 <=1 
C770: x28+x44 <=1 
C771: x28+x46-y28_46 <=1 
C772: x28+x48 <=1 
C773: x28+x49-y28_49 <=1 
C774: x28+x50 <=1 
C775: x28+x51-y28_51 <=1 
C776: x28+x53 <=1 
C777: x28+x54-y28_54 <=1 
C778: x28+x55-y28_55 <=1 
C779: x29+x30 <=1 
C780: x29+x31 <=1 
C781: x29+x32-y29_32 <=1 
C782: x29+x35-y29_35 <=1 
C783: x29+x37-y29_37 <=1 
C784: x29+x39-y29_39 <=1 
C785: x29+x40 <=1 
C786: x29+x41-y29_41 <=1 
C787: x29+x42 <=1 
C788: x29+x43-y29_43 <=1 
C789: x29+x44-y29_44 <=1 
C790: x29+x47 <=1 
C791: x29+x49 <=1 
C792: x29+x51-y29_51 <=1 
C793: x29+x52-y29_52 <=1 
C794: x29+x54-y29_54 <=1 
C795: x29+x56-y29_56 <=1 
C796: x29+x57 <=1 
C797: x29+x58 <=1 
C798: x29+x60 <=1 
C799: x30+x32 <=1 
C800: x30+x33 <=1 
C801: x30+x34-y30_34 <=1 
C802: x30+x37-y30_37 <=1 
C803: x30+x38 <=1 
C804: x30+x40 <=1 
C805: x30+x41 <=1 
C806: x30+x45-y30_45 <=1 
C807: x30+x46-y30_46 <=1 
C808: x30+x47 <=1 
C809: x30+x50-y30_50 <=1 
C810: x30+x52 <=1 
C811: x30+x53-y30_53 <=1 
C812: x30+x54-y30_54 <=1 
C813: x30+x55 <=1 
C814: x30+x56-y30_56 <=1 
C815: x30+x59 <=1 
C816: x30+x61 <=1 
C817: x31+x32-y31_32 <=1 
C818: x31+x35-y31_35 <=1 
C819: x31+x36-y31_36 <=1 
C820: x31+x37 <=1 
C821: x31+x38 <=1 
C822: x31+x39 <=1 
C823: x31+x40 <=1 
C824: x31+x42-y31_42 <=1 
C825: x31+x44 <=1 
C826: x31+x45 <=1 
C827: x31+x49 <=1 
C828: x31+x50 <=1 
C829: x31+x52-y31_52 <=1 
C830: x31+x53-y31_53 <=1 
C831: x31+x55-y31_55 <=1 
C832: x31+x56-y31_56 <=1 
C833: x31+x57-y31_57 <=1 
C834: x31+x59 <=1 
C835: x31+x61-y31_61 <=1 
C836: x32+x34-y32_34 <=1 
C837: x32+x37 <=1 
C838: x32+x38 <=1 
C839: x32+x40 <=1 
C840: x32+x42-y32_42 <=1 
C841: x32+x44-y32_44 <=1 
C842: x32+x46-y32_46 <=1 
C843: x32+x47-y32_47 <=1 
C844: x32+x49-y32_49 <=1 
C845: x32+x50-y32_50 <=1 
C846: x32+x54-y32_54 <=1 
C847: x32+x59-y32_59 <=1 
C848: x32+x60-y32_60 <=1 
C849: x32+x61-y32_61 <=1 
C850: x33+x40 <=1 
C851: x33+x41 <=1 
C852: x33+x42 <=1 
C853: x33+x43-y33_43 <=1 
C854: x33+x44-y33_44 <=1 
C855: x33+x45 <=1 
C856: x33+x47 <=1 
C857: x33+x52 <=1 
C858: x33+x53-y33_53 <=1 
C859: x33+x54 <=1 
C860: x33+x56-y33_56 <=1 
C861: x33+x57-y33_57 <=1 
C862: x33+x58 <=1 
C863: x33+x60 <=1 
C864: x33+x61 <=1 
C865: x34+x35 <=1 
C866: x34+x36-y34_36 <=1 
C867: x34+x37-y34_37 <=1 
C868: x34+x39-y34_39 <=1 
C869: x34+x40 <=1 
C870: x34+x41 <=1 
C871: x34+x42 <=1 
C872: x34+x45-y34_45 <=1 
C873: x34+x48-y34_48 <=1 
C874: x34+x49-y34_49 <=1 
C875: x34+x52 <=1 
C876: x34+x55 <=1 
C877: x34+x56-y34_56 <=1 
C878: x34+x58-y34_58 <=1 
C879: x34+x60-y34_60 <=1 
C880: x34+x61-y34_61 <=1 
C881: x35+x37-y35_37 <=1 
C882: x35+x38 <=1 
C883: x35+x39-y35_39 <=1 
C884: x35+x41-y35_41 <=1 
C885: x35+x42 <=1 
C886: x35+x46 <=1 
C887: x35+x47 <=1 
C888: x35+x49-y35_49 <=1 
C889: x35+x50 <=1 
C890: x35+x51-y35_51 <=1 
C891: x35+x52-y35_52 <=1 
C892: x35+x53-y35_53 <=1 
C893: x35+x54-y35_54 <=1 
C894: x35+x55-y35_55 <=1 
C895: x35+x56 <=1 
C896: x35+x58-y35_58 <=1 
C897: x35+x60 <=1 
C898: x35+x61-y35_61 <=1 
C899: x36+x37 <=1 
C900: x36+x38 <=1 
C901: x36+x39 <=1 
C902: x36+x42-y36_42 <=1 
C903: x36+x43 <=1 
C904: x36+x44 <=1 
C905: x36+x47 <=1 
C906: x36+x48-y36_48 <=1 
C907: x36+x49 <=1 
C908: x36+x50-y36_50 <=1 
C909: x36+x51-y36_51 <=1 
C910: x36+x55 <=1 
C911: x36+x59 <=1 
C912: x36+x61 <=1 
C913: x37+x39-y37_39 <=1 
C914: x37+x40-y37_40 <=1 
C915: x37+x41-y37_41 <=1 
C916: x37+x42-y37_42 <=1 
C917: x37+x44 <=1 
C918: x37+x45 <=1 
C919: x37+x47 <=1 
C920: x37+x49-y37_49 <=1 
C921: x37+x50-y37_50 <=1 
C922: x37+x58 <=1 
C923: x37+x59-y37_59 <=1 
C924: x37+x61-y37_61 <=1 
C925: x38+x39 <=1 
C926: x38+x40-y38_40 <=1 
C927: x38+x41 <=1 
C928: x38+x42-y38_42 <=1 
C929: x38+x43 <=1 
C930: x38+x44 <=1 
C931: x38+x45 <=1 
C932: x38+x46-y38_46 <=1 
C933: x38+x47-y38_47 <=1 
C934: x38+x49 <=1 
C935: x38+x51 <=1 
C936: x38+x54-y38_54 <=1 
C937: x38+x55-y38_55 <=1 
C938: x38+x57-y38_57 <=1 
C939: x38+x59 <=1 
C940: x38+x60-y38_60 <=1 
C941: x39+x40-y39_40 <=1 
C942: x39+x41 <=1 
C943: x39+x45 <=1 
C944: x39+x46 <=1 
C945: x39+x47-y39_47 <=1 
C946: x39+x48 <=1 
C947: x39+x51 <=1 
C948: x39+x52-y39_52 <=1 
C949: x39+x58-y39_58 <=1 
C950: x40+x44 <=1 
C951: x40+x45 <=1 
C952: x40+x49-y40_49 <=1 
C953: x40+x50-y40_50 <=1 
C954: x40+x51-y40_51 <=1 
C955: x40+x52-y40_52 <=1 
C956: x40+x56 <=1 
C957: x40+x57-y40_57 <=1 
C958: x40+x58-y40_58 <=1 
C959: x40+x61 <=1 
C960: x41+x44 <=1 
C961: x41+x47-y41_47 <=1 
C962: x41+x48-y41_48 <=1 
C963: x41+x49 <=1 
C964: x41+x51-y41_51 <=1 
C965: x41+x53-y41_53 <=1 
C966: x41+x54 <=1 
C967: x41+x55 <=1 
C968: x41+x57 <=1 
C969: x41+x58-y41_58 <=1 
C970: x41+x59 <=1 
C971: x41+x60-y41_60 <=1 
C972: x42+x43 <=1 
C973: x42+x48-y42_48 <=1 
C974: x42+x49-y42_49 <=1 
C975: x42+x50-y42_50 <=1 
C976: x42+x52-y42_52 <=1 
C977: x42+x53-y42_53 <=1 
C978: x42+x54 <=1 
C979: x42+x55 <=1 
C980: x42+x56-y42_56 <=1 
C981: x42+x58 <=1 
C982: x42+x59 <=1 
C983: x42+x60 <=1 
C984: x43+x44-y43_44 <=1 
C985: x43+x45-y43_45 <=1 
C986: x43+x47-y43_47 <=1 
C987: x43+x49-y43_49 <=1 
C988: x43+x51-y43_51 <=1 
C989: x43+x52-y43_52 <=1 
C990: x43+x53-y43_53 <=1 
C991: x43+x54-y43_54 <=1 
C992: x43+x55-y43_55 <=1 
C993: x43+x60 <=1 
C994: x44+x47 <=1 
C995: x44+x49 <=1 
C996: x44+x52-y44_52 <=1 
C997: x44+x54 <=1 
C998: x44+x59 <=1 
C999: x44+x60 <=1 
C1000: x44+x61 <=1 
C1001: x45+x46 <=1 
C1002: x45+x47-y45_47 <=1 
C1003: x45+x50-y45_50 <=1 
C1004: x45+x51-y45_51 <=1 
C1005: x45+x52 <=1 
C1006: x45+x55 <=1 
C1007: x45+x56 <=1 
C1008: x45+x57-y45_57 <=1 
C1009: x45+x58-y45_58 <=1 
C1010: x45+x59-y45_59 <=1 
C1011: x45+x60-y45_60 <=1 
C1012: x46+x47 <=1 
C1013: x46+x49 <=1 
C1014: x46+x50 <=1 
C1015: x46+x51 <=1 
C1016: x46+x52 <=1 
C1017: x46+x53 <=1 
C1018: x46+x56-y46_56 <=1 
C1019: x46+x60-y46_60 <=1 
C1020: x46+x61 <=1 
C1021: x47+x48-y47_48 <=1 
C1022: x47+x50 <=1 
C1023: x47+x51 <=1 
C1024: x47+x53-y47_53 <=1 
C1025: x47+x55-y47_55 <=1 
C1026: x47+x57-y47_57 <=1 
C1027: x47+x59-y47_59 <=1 
C1028: x47+x60-y47_60 <=1 
C1029: x48+x49-y48_49 <=1 
C1030: x48+x50-y48_50 <=1 
C1031: x48+x53-y48_53 <=1 
C1032: x48+x54-y48_54 <=1 
C1033: x48+x56 <=1 
C1034: x48+x57 <=1 
C1035: x48+x58 <=1 
C1036: x49+x50 <=1 
C1037: x49+x51-y49_51 <=1 
C1038: x49+x52 <=1 
C1039: x49+x54-y49_54 <=1 
C1040: x49+x55-y49_55 <=1 
C1041: x49+x56 <=1 
C1042: x49+x57-y49_57 <=1 
C1043: x49+x58-y49_58 <=1 
C1044: x49+x59 <=1 
C1045: x49+x61-y49_61 <=1 
C1046: x50+x51 <=1 
C1047: x50+x52 <=1 
C1048: x50+x54-y50_54 <=1 
C1049: x50+x55 <=1 
C1050: x50+x56-y50_56 <=1 
C1051: x50+x57-y50_57 <=1 
C1052: x50+x58 <=1 
C1053: x51+x52-y51_52 <=1 
C1054: x51+x53 <=1 
C1055: x51+x54-y51_54 <=1 
C1056: x51+x55 <=1 
C1057: x51+x56 <=1 
C1058: x51+x58-y51_58 <=1 
C1059: x51+x59-y51_59 <=1 
C1060: x52+x53 <=1 
C1061: x52+x56 <=1 
C1062: x52+x58-y52_58 <=1 
C1063: x52+x59 <=1 
C1064: x52+x61 <=1 
C1065: x53+x54 <=1 
C1066: x53+x55 <=1 
C1067: x53+x56-y53_56 <=1 
C1068: x53+x58-y53_58 <=1 
C1069: x53+x60 <=1 
C1070: x53+x61-y53_61 <=1 
C1071: x54+x56-y54_56 <=1 
C1072: x54+x58-y54_58 <=1 
C1073: x54+x59-y54_59 <=1 
C1074: x54+x61 <=1 
C1075: x55+x56-y55_56 <=1 
C1076: x55+x60 <=1 
C1077: x56+x58 <=1 
C1078: x56+x59 <=1 
C1079: x56+x61 <=1 
C1080: x57+x59-y57_59 <=1 
C1081: x57+x61 <=1 
C1082: x58+x59 <=1 
C1083: x59+x60 <=1 
C1084: x59+x61 <=1 
C1085: x60+x61-y60_61 <=1 

binary
x0
x1
x2
x3
x4
x5
x6
x7
x8
x9
x10
x11
x12
x13
x14
x15
x16
x17
x18
x19
x20
x21
x22
x23
x24
x25
x26
x27
x28
x29
x30
x31
x32
x33
x34
x35
x36
x37
x38
x39
x40
x41
x42
x43
x44
x45
x46
x47
x48
x49
x50
x51
x52
x53
x54
x55
x56
x57
x58
x59
x60
x61
