problem_generation/data/GISP/train/er_n=62_m=1085_p=0.60_SET2_setparam=100.00_alpha=0.50_915.sol
objective value:                                 1276
x0                                                  1 	(obj:100)
x1                                                  1 	(obj:100)
x7                                                  1 	(obj:100)
x9                                                  1 	(obj:100)
x15                                                 1 	(obj:100)
x22                                                 1 	(obj:100)
x29                                                 1 	(obj:100)
x32                                                 1 	(obj:100)
x41                                                 1 	(obj:100)
x45                                                 1 	(obj:100)
x48                                                 1 	(obj:100)
x53                                                 1 	(obj:100)
x61                                                 1 	(obj:100)
y29_32                                              1 	(obj:-1)
y29_41                                              1 	(obj:-1)
y48_53                                              1 	(obj:-1)
y9_61                                               1 	(obj:-1)
y1_29                                               1 	(obj:-1)
y0_41                                               1 	(obj:-1)
y53_61                                              1 	(obj:-1)
y1_32                                               1 	(obj:-1)
y7_48                                               1 	(obj:-1)
y15_29                                              1 	(obj:-1)
y15_32                                              1 	(obj:-1)
y0_7                                                1 	(obj:-1)
y32_61                                              1 	(obj:-1)
y1_41                                               1 	(obj:-1)
y1_22                                               1 	(obj:-1)
y0_48                                               1 	(obj:-1)
y41_53                                              1 	(obj:-1)
y0_61                                               1 	(obj:-1)
y1_7                                                1 	(obj:-1)
y15_45                                              1 	(obj:-1)
y7_41                                               1 	(obj:-1)
y41_48                                              1 	(obj:-1)
y7_22                                               1 	(obj:-1)
y0_1                                                1 	(obj:-1)
